NumGames = 1;
NumReferees = 4;
NumFields = 1;
game_start = [720];
game_end = [840];
difficulty = [2];
game_field = [1];
main_exp = [54, 67, 147, 135];
assist_exp = [100, 50, 99, 101];
available_slots = array3d(1..NumReferees, 1..10, 1..2,[
  720,1140, 0,0, 0,0, 0,0, 0,0, 0,0, 0,0, 0,0, 0,0, 0,0,
  720,1440, 0,0, 0,0, 0,0, 0,0, 0,0, 0,0, 0,0, 0,0, 0,0,
  0,1440, 0,0, 0,0, 0,0, 0,0, 0,0, 0,0, 0,0, 0,0, 0,0,
  0,1440, 0,0, 0,0, 0,0, 0,0, 0,0, 0,0, 0,0, 0,0, 0,0,
]);